db/data/1149819871649646811944985358109074.z3.out
-------------------
2500.101846457
